; benchmark generated from python API
(set-info :status unknown)
(declare-fun strlen_186_64 () (_ BitVec 64))
(declare-fun args_0_8 () (_ BitVec 8))
(declare-fun strlen_78_64 () (_ BitVec 64))
(declare-fun strncmp_ret_79_32 () (_ BitVec 32))
(declare-fun strlen_206_64 () (_ BitVec 64))
(declare-fun args_1_8 () (_ BitVec 8))
(declare-fun strlen_81_64 () (_ BitVec 64))
(declare-fun strncmp_ret_82_32 () (_ BitVec 32))
(declare-fun strlen_230_64 () (_ BitVec 64))
(declare-fun args_2_8 () (_ BitVec 8))
(declare-fun strlen_84_64 () (_ BitVec 64))
(declare-fun strncmp_ret_85_32 () (_ BitVec 32))
(declare-fun strlen_254_64 () (_ BitVec 64))
(declare-fun args_3_8 () (_ BitVec 8))
(declare-fun strlen_87_64 () (_ BitVec 64))
(declare-fun strncmp_ret_88_32 () (_ BitVec 32))
(declare-fun strlen_282_64 () (_ BitVec 64))
(declare-fun args_4_8 () (_ BitVec 8))
(declare-fun strlen_90_64 () (_ BitVec 64))
(declare-fun strncmp_ret_91_32 () (_ BitVec 32))
(declare-fun strlen_312_64 () (_ BitVec 64))
(declare-fun args_5_16 () (_ BitVec 16))
(declare-fun strlen_93_64 () (_ BitVec 64))
(declare-fun strncmp_ret_94_32 () (_ BitVec 32))
(declare-fun strlen_342_64 () (_ BitVec 64))
(declare-fun args_6_16 () (_ BitVec 16))
(declare-fun strlen_99_64 () (_ BitVec 64))
(declare-fun strncmp_ret_100_32 () (_ BitVec 32))
(declare-fun strlen_372_64 () (_ BitVec 64))
(declare-fun args_7_16 () (_ BitVec 16))
(declare-fun strlen_105_64 () (_ BitVec 64))
(declare-fun strncmp_ret_106_32 () (_ BitVec 32))
(declare-fun strlen_402_64 () (_ BitVec 64))
(declare-fun args_8_16 () (_ BitVec 16))
(declare-fun strlen_111_64 () (_ BitVec 64))
(declare-fun strncmp_ret_112_32 () (_ BitVec 32))
(declare-fun strlen_432_64 () (_ BitVec 64))
(declare-fun args_9_16 () (_ BitVec 16))
(declare-fun strlen_117_64 () (_ BitVec 64))
(declare-fun strncmp_ret_118_32 () (_ BitVec 32))
(declare-fun strlen_123_64 () (_ BitVec 64))
(declare-fun args_10_32 () (_ BitVec 32))
(declare-fun strncmp_ret_124_32 () (_ BitVec 32))
(declare-fun args_11_32 () (_ BitVec 32))
(declare-fun num_bytes_126_64 () (_ BitVec 64))
(declare-fun num_bytes_125_64 () (_ BitVec 64))
(declare-fun num_bytes_127_64 () (_ BitVec 64))
(declare-fun strncmp_ret_187_32 () (_ BitVec 32))
(declare-fun strncmp_ret_207_32 () (_ BitVec 32))
(declare-fun strncmp_ret_231_32 () (_ BitVec 32))
(declare-fun strncmp_ret_255_32 () (_ BitVec 32))
(declare-fun strncmp_ret_283_32 () (_ BitVec 32))
(declare-fun strncmp_ret_313_32 () (_ BitVec 32))
(declare-fun strncmp_ret_343_32 () (_ BitVec 32))
(declare-fun strncmp_ret_373_32 () (_ BitVec 32))
(declare-fun strncmp_ret_403_32 () (_ BitVec 32))
(declare-fun strncmp_ret_433_32 () (_ BitVec 32))
(declare-fun strlen_462_64 () (_ BitVec 64))
(declare-fun args_12_32 () (_ BitVec 32))
(declare-fun strncmp_ret_463_32 () (_ BitVec 32))
(declare-fun strlen_492_64 () (_ BitVec 64))
(declare-fun args_13_32 () (_ BitVec 32))
(declare-fun strncmp_ret_493_32 () (_ BitVec 32))
(declare-fun strlen_522_64 () (_ BitVec 64))
(declare-fun args_14_32 () (_ BitVec 32))
(declare-fun strncmp_ret_523_32 () (_ BitVec 32))
(declare-fun strncmp_ret_553_32 () (_ BitVec 32))
(declare-fun strlen_552_64 () (_ BitVec 64))
(declare-fun args_15_64 () (_ BitVec 64))
(declare-fun strlen_590_64 () (_ BitVec 64))
(declare-fun args_16_64 () (_ BitVec 64))
(declare-fun strncmp_ret_591_32 () (_ BitVec 32))
(assert
 (let ((?x12831 (bvadd (_ bv576460752303357824 64) strlen_186_64)))
 (let (($x69 (= (_ bv0 8) args_0_8)))
 (let ((?x46 (ite $x69 (_ bv576460752303357824 64) (_ bv576460752303357825 64))))
 (= ?x46 ?x12831)))))
(assert
 (let ((?x101 (bvadd (_ bv576460752303357824 64) strlen_78_64)))
 (let (($x69 (= (_ bv0 8) args_0_8)))
 (let ((?x46 (ite $x69 (_ bv576460752303357824 64) (_ bv576460752303357825 64))))
 (= ?x46 ?x101)))))
(assert
 (let (($x104 (bvule (_ bv2 64) strlen_78_64)))
 (let (($x48 (= (_ bv2 64) strlen_78_64)))
 (let (($x175 (or $x48 $x104)))
 (let (($x176 (not $x175)))
 (let (($x57 (= (_ bv45 8) args_0_8)))
 (let (($x174 (not $x57)))
 (or $x174 $x176))))))))
(assert
 (= (_ bv1 32) strncmp_ret_79_32))
(assert
 (let ((?x14115 (bvadd (_ bv576460752303357826 64) strlen_206_64)))
 (let (($x121 (= (_ bv0 8) args_1_8)))
 (let ((?x123 (ite $x121 (_ bv576460752303357826 64) (_ bv576460752303357827 64))))
 (= ?x123 ?x14115)))))
(assert
 (let ((?x158 (bvadd (_ bv576460752303357826 64) strlen_81_64)))
 (let (($x121 (= (_ bv0 8) args_1_8)))
 (let ((?x123 (ite $x121 (_ bv576460752303357826 64) (_ bv576460752303357827 64))))
 (= ?x123 ?x158)))))
(assert
 (let (($x161 (bvule (_ bv2 64) strlen_81_64)))
 (let (($x136 (= (_ bv2 64) strlen_81_64)))
 (let (($x129 (or $x136 $x161)))
 (let (($x130 (not $x129)))
 (let (($x142 (= (_ bv45 8) args_1_8)))
 (let (($x204 (not $x142)))
 (or $x204 $x130))))))))
(assert
 (= (_ bv1 32) strncmp_ret_82_32))
(assert
 (let ((?x15880 (bvadd (_ bv576460752303357828 64) strlen_230_64)))
 (let (($x191 (= (_ bv0 8) args_2_8)))
 (let ((?x189 (ite $x191 (_ bv576460752303357828 64) (_ bv576460752303357829 64))))
 (= ?x189 ?x15880)))))
(assert
 (let ((?x764 (bvadd (_ bv576460752303357828 64) strlen_84_64)))
 (let (($x191 (= (_ bv0 8) args_2_8)))
 (let ((?x189 (ite $x191 (_ bv576460752303357828 64) (_ bv576460752303357829 64))))
 (= ?x189 ?x764)))))
(assert
 (let (($x767 (bvule (_ bv2 64) strlen_84_64)))
 (let (($x746 (= (_ bv2 64) strlen_84_64)))
 (let (($x169 (or $x746 $x767)))
 (let (($x167 (not $x169)))
 (let (($x747 (= (_ bv45 8) args_2_8)))
 (let (($x131 (not $x747)))
 (or $x131 $x167))))))))
(assert
 (= (_ bv1 32) strncmp_ret_85_32))
(assert
 (let ((?x16462 (bvadd (_ bv576460752303357830 64) strlen_254_64)))
 (let (($x96 (= (_ bv0 8) args_3_8)))
 (let ((?x157 (ite $x96 (_ bv576460752303357830 64) (_ bv576460752303357831 64))))
 (= ?x157 ?x16462)))))
(assert
 (let ((?x616 (bvadd (_ bv576460752303357830 64) strlen_87_64)))
 (let (($x96 (= (_ bv0 8) args_3_8)))
 (let ((?x157 (ite $x96 (_ bv576460752303357830 64) (_ bv576460752303357831 64))))
 (= ?x157 ?x616)))))
(assert
 (let (($x281 (bvule (_ bv2 64) strlen_87_64)))
 (let (($x165 (= (_ bv2 64) strlen_87_64)))
 (let (($x234 (or $x165 $x281)))
 (let (($x233 (not $x234)))
 (let (($x134 (= (_ bv45 8) args_3_8)))
 (let (($x561 (not $x134)))
 (or $x561 $x233))))))))
(assert
 (= (_ bv1 32) strncmp_ret_88_32))
(assert
 (let ((?x17190 (bvadd (_ bv576460752303357832 64) strlen_282_64)))
 (let (($x268 (= (_ bv0 8) args_4_8)))
 (let ((?x342 (ite $x268 (_ bv576460752303357832 64) (_ bv576460752303357833 64))))
 (= ?x342 ?x17190)))))
(assert
 (let ((?x729 (bvadd (_ bv576460752303357832 64) strlen_90_64)))
 (let (($x268 (= (_ bv0 8) args_4_8)))
 (let ((?x342 (ite $x268 (_ bv576460752303357832 64) (_ bv576460752303357833 64))))
 (= ?x342 ?x729)))))
(assert
 (let (($x97 (bvule (_ bv2 64) strlen_90_64)))
 (let (($x609 (= (_ bv2 64) strlen_90_64)))
 (let (($x815 (or $x609 $x97)))
 (let (($x852 (not $x815)))
 (let (($x357 (= (_ bv45 8) args_4_8)))
 (let (($x812 (not $x357)))
 (or $x812 $x852))))))))
(assert
 (= (_ bv1 32) strncmp_ret_91_32))
(assert
 (let ((?x18139 (bvadd (_ bv576460752303357834 64) strlen_312_64)))
 (let ((?x273 ((_ extract 7 0) args_5_16)))
 (let (($x258 (= (_ bv0 8) ?x273)))
 (let ((?x446 (ite $x258 (_ bv576460752303357835 64) (_ bv576460752303357836 64))))
 (let ((?x242 ((_ extract 15 8) args_5_16)))
 (let (($x322 (= (_ bv0 8) ?x242)))
 (let ((?x414 (ite $x322 (_ bv576460752303357834 64) ?x446)))
 (= ?x414 ?x18139)))))))))
(assert
 (let ((?x589 (bvadd (_ bv576460752303357834 64) strlen_93_64)))
 (let ((?x273 ((_ extract 7 0) args_5_16)))
 (let (($x258 (= (_ bv0 8) ?x273)))
 (let ((?x446 (ite $x258 (_ bv576460752303357835 64) (_ bv576460752303357836 64))))
 (let ((?x242 ((_ extract 15 8) args_5_16)))
 (let (($x322 (= (_ bv0 8) ?x242)))
 (let ((?x414 (ite $x322 (_ bv576460752303357834 64) ?x446)))
 (= ?x414 ?x589)))))))))
(assert
 (let (($x619 (bvule (_ bv2 64) strlen_93_64)))
 (let (($x221 (= (_ bv2 64) strlen_93_64)))
 (let (($x1182 (or $x221 $x619)))
 (let (($x1181 (not $x1182)))
 (let ((?x242 ((_ extract 15 8) args_5_16)))
 (let (($x571 (= (_ bv45 8) ?x242)))
 (let (($x1183 (not $x571)))
 (let (($x600 (bvule (_ bv1 64) strlen_93_64)))
 (let (($x614 (not $x600)))
 (let ((?x273 ((_ extract 7 0) args_5_16)))
 (let (($x455 (= (_ bv105 8) ?x273)))
 (let (($x366 (or $x455 $x614)))
 (let (($x1192 (not $x366)))
 (or $x1192 $x1183 $x1181)))))))))))))))
(assert
 (let (($x18142 (bvule (_ bv6 64) strlen_312_64)))
 (let (($x200 (= (_ bv6 64) strlen_312_64)))
 (let (($x18178 (or $x200 $x18142)))
 (let (($x18184 (not $x18178)))
 (let ((?x242 ((_ extract 15 8) args_5_16)))
 (let (($x571 (= (_ bv45 8) ?x242)))
 (let (($x1183 (not $x571)))
 (let (($x18146 (bvule (_ bv1 64) strlen_312_64)))
 (let (($x18147 (not $x18146)))
 (let ((?x273 ((_ extract 7 0) args_5_16)))
 (let (($x11056 (= (_ bv110 8) ?x273)))
 (let (($x18202 (or $x11056 $x18147)))
 (let (($x18190 (not $x18202)))
 (or $x18190 $x1183 $x18184)))))))))))))))
(assert
 (= (_ bv1 32) strncmp_ret_94_32))
(assert
 (let ((?x18348 (bvadd (_ bv576460752303357837 64) strlen_342_64)))
 (let ((?x779 ((_ extract 7 0) args_6_16)))
 (let (($x1191 (= (_ bv0 8) ?x779)))
 (let ((?x1221 (ite $x1191 (_ bv576460752303357838 64) (_ bv576460752303357839 64))))
 (let ((?x182 ((_ extract 15 8) args_6_16)))
 (let (($x369 (= (_ bv0 8) ?x182)))
 (let ((?x1222 (ite $x369 (_ bv576460752303357837 64) ?x1221)))
 (= ?x1222 ?x18348)))))))))
(assert
 (let ((?x702 (bvadd (_ bv576460752303357837 64) strlen_99_64)))
 (let ((?x779 ((_ extract 7 0) args_6_16)))
 (let (($x1191 (= (_ bv0 8) ?x779)))
 (let ((?x1221 (ite $x1191 (_ bv576460752303357838 64) (_ bv576460752303357839 64))))
 (let ((?x182 ((_ extract 15 8) args_6_16)))
 (let (($x369 (= (_ bv0 8) ?x182)))
 (let ((?x1222 (ite $x369 (_ bv576460752303357837 64) ?x1221)))
 (= ?x1222 ?x702)))))))))
(assert
 (let (($x708 (bvule (_ bv1 64) strlen_99_64)))
 (let (($x709 (not $x708)))
 (let ((?x779 ((_ extract 7 0) args_6_16)))
 (let (($x1231 (= (_ bv105 8) ?x779)))
 (let (($x1735 (or $x1231 $x709)))
 (let (($x1644 (not $x1735)))
 (let ((?x182 ((_ extract 15 8) args_6_16)))
 (let (($x294 (= (_ bv45 8) ?x182)))
 (let (($x1635 (not $x294)))
 (let (($x278 (bvule (_ bv2 64) strlen_99_64)))
 (let (($x1226 (= (_ bv2 64) strlen_99_64)))
 (let (($x1634 (or $x1226 $x278)))
 (let (($x1633 (not $x1634)))
 (or $x1633 $x1635 $x1644)))))))))))))))
(assert
 (let (($x17783 (bvule (_ bv6 64) strlen_342_64)))
 (let (($x12836 (= (_ bv6 64) strlen_342_64)))
 (let (($x16052 (or $x12836 $x17783)))
 (let (($x15106 (not $x16052)))
 (let ((?x182 ((_ extract 15 8) args_6_16)))
 (let (($x294 (= (_ bv45 8) ?x182)))
 (let (($x1635 (not $x294)))
 (let ((?x779 ((_ extract 7 0) args_6_16)))
 (let (($x13910 (= (_ bv110 8) ?x779)))
 (let (($x4576 (bvule (_ bv1 64) strlen_342_64)))
 (let (($x4580 (not $x4576)))
 (let (($x16866 (or $x4580 $x13910)))
 (let (($x17215 (not $x16866)))
 (or $x17215 $x1635 $x15106)))))))))))))))
(assert
 (= (_ bv1 32) strncmp_ret_100_32))
(assert
 (let ((?x6676 (bvadd (_ bv576460752303357840 64) strlen_372_64)))
 (let ((?x1558 ((_ extract 7 0) args_7_16)))
 (let (($x1643 (= (_ bv0 8) ?x1558)))
 (let ((?x1652 (ite $x1643 (_ bv576460752303357841 64) (_ bv576460752303357842 64))))
 (let ((?x1387 ((_ extract 15 8) args_7_16)))
 (let (($x1480 (= (_ bv0 8) ?x1387)))
 (let ((?x1653 (ite $x1480 (_ bv576460752303357840 64) ?x1652)))
 (= ?x1653 ?x6676)))))))))
(assert
 (let ((?x1818 (bvadd (_ bv576460752303357840 64) strlen_105_64)))
 (let ((?x1558 ((_ extract 7 0) args_7_16)))
 (let (($x1643 (= (_ bv0 8) ?x1558)))
 (let ((?x1652 (ite $x1643 (_ bv576460752303357841 64) (_ bv576460752303357842 64))))
 (let ((?x1387 ((_ extract 15 8) args_7_16)))
 (let (($x1480 (= (_ bv0 8) ?x1387)))
 (let ((?x1653 (ite $x1480 (_ bv576460752303357840 64) ?x1652)))
 (= ?x1653 ?x1818)))))))))
(assert
 (let (($x1821 (bvule (_ bv2 64) strlen_105_64)))
 (let (($x1665 (= (_ bv2 64) strlen_105_64)))
 (let (($x2359 (or $x1665 $x1821)))
 (let (($x2358 (not $x2359)))
 (let ((?x1387 ((_ extract 15 8) args_7_16)))
 (let (($x1373 (= (_ bv45 8) ?x1387)))
 (let (($x2360 (not $x1373)))
 (let (($x1826 (bvule (_ bv1 64) strlen_105_64)))
 (let (($x1827 (not $x1826)))
 (let ((?x1558 ((_ extract 7 0) args_7_16)))
 (let (($x1670 (= (_ bv105 8) ?x1558)))
 (let (($x2027 (or $x1670 $x1827)))
 (let (($x2371 (not $x2027)))
 (or $x2371 $x2360 $x2358)))))))))))))))
(assert
 (let (($x9924 (bvule (_ bv6 64) strlen_372_64)))
 (let (($x557 (= (_ bv6 64) strlen_372_64)))
 (let (($x18233 (or $x557 $x9924)))
 (let (($x18161 (not $x18233)))
 (let ((?x1387 ((_ extract 15 8) args_7_16)))
 (let (($x1373 (= (_ bv45 8) ?x1387)))
 (let (($x2360 (not $x1373)))
 (let ((?x1558 ((_ extract 7 0) args_7_16)))
 (let (($x13381 (= (_ bv110 8) ?x1558)))
 (let (($x2642 (bvule (_ bv1 64) strlen_372_64)))
 (let (($x2886 (not $x2642)))
 (let (($x17490 (or $x2886 $x13381)))
 (let (($x18651 (not $x17490)))
 (or $x18651 $x2360 $x18161)))))))))))))))
(assert
 (= (_ bv1 32) strncmp_ret_106_32))
(assert
 (let ((?x9066 (bvadd (_ bv576460752303357843 64) strlen_402_64)))
 (let ((?x1852 ((_ extract 7 0) args_8_16)))
 (let (($x2370 (= (_ bv0 8) ?x1852)))
 (let ((?x2404 (ite $x2370 (_ bv576460752303357844 64) (_ bv576460752303357845 64))))
 (let ((?x2032 ((_ extract 15 8) args_8_16)))
 (let (($x1997 (= (_ bv0 8) ?x2032)))
 (let ((?x2405 (ite $x1997 (_ bv576460752303357843 64) ?x2404)))
 (= ?x2405 ?x9066)))))))))
(assert
 (let ((?x2284 (bvadd (_ bv576460752303357843 64) strlen_111_64)))
 (let ((?x1852 ((_ extract 7 0) args_8_16)))
 (let (($x2370 (= (_ bv0 8) ?x1852)))
 (let ((?x2404 (ite $x2370 (_ bv576460752303357844 64) (_ bv576460752303357845 64))))
 (let ((?x2032 ((_ extract 15 8) args_8_16)))
 (let (($x1997 (= (_ bv0 8) ?x2032)))
 (let ((?x2405 (ite $x1997 (_ bv576460752303357843 64) ?x2404)))
 (= ?x2405 ?x2284)))))))))
(assert
 (let (($x2287 (bvule (_ bv2 64) strlen_111_64)))
 (let (($x2409 (= (_ bv2 64) strlen_111_64)))
 (let (($x3118 (or $x2409 $x2287)))
 (let (($x3117 (not $x3118)))
 (let ((?x2032 ((_ extract 15 8) args_8_16)))
 (let (($x1851 (= (_ bv45 8) ?x2032)))
 (let (($x3119 (not $x1851)))
 (let (($x2292 (bvule (_ bv1 64) strlen_111_64)))
 (let (($x2293 (not $x2292)))
 (let ((?x1852 ((_ extract 7 0) args_8_16)))
 (let (($x2414 (= (_ bv105 8) ?x1852)))
 (let (($x2522 (or $x2414 $x2293)))
 (let (($x3130 (not $x2522)))
 (or $x3130 $x3119 $x3117)))))))))))))))
(assert
 (let (($x6886 (bvule (_ bv6 64) strlen_402_64)))
 (let (($x2491 (= (_ bv6 64) strlen_402_64)))
 (let (($x9831 (or $x2491 $x6886)))
 (let (($x11173 (not $x9831)))
 (let ((?x2032 ((_ extract 15 8) args_8_16)))
 (let (($x1851 (= (_ bv45 8) ?x2032)))
 (let (($x3119 (not $x1851)))
 (let (($x18502 (bvule (_ bv1 64) strlen_402_64)))
 (let (($x16979 (not $x18502)))
 (let ((?x1852 ((_ extract 7 0) args_8_16)))
 (let (($x14809 (= (_ bv110 8) ?x1852)))
 (let (($x6243 (or $x14809 $x16979)))
 (let (($x19186 (not $x6243)))
 (or $x19186 $x3119 $x11173)))))))))))))))
(assert
 (= (_ bv1 32) strncmp_ret_112_32))
(assert
 (let ((?x17274 (bvadd (_ bv576460752303357846 64) strlen_432_64)))
 (let ((?x2852 ((_ extract 7 0) args_9_16)))
 (let (($x3129 (= (_ bv0 8) ?x2852)))
 (let ((?x3112 (ite $x3129 (_ bv576460752303357847 64) (_ bv576460752303357848 64))))
 (let ((?x2821 ((_ extract 15 8) args_9_16)))
 (let (($x3121 (= (_ bv0 8) ?x2821)))
 (let ((?x3111 (ite $x3121 (_ bv576460752303357846 64) ?x3112)))
 (= ?x3111 ?x17274)))))))))
(assert
 (let ((?x3168 (bvadd (_ bv576460752303357846 64) strlen_117_64)))
 (let ((?x2852 ((_ extract 7 0) args_9_16)))
 (let (($x3129 (= (_ bv0 8) ?x2852)))
 (let ((?x3112 (ite $x3129 (_ bv576460752303357847 64) (_ bv576460752303357848 64))))
 (let ((?x2821 ((_ extract 15 8) args_9_16)))
 (let (($x3121 (= (_ bv0 8) ?x2821)))
 (let ((?x3111 (ite $x3121 (_ bv576460752303357846 64) ?x3112)))
 (= ?x3111 ?x3168)))))))))
(assert
 (let (($x3176 (bvule (_ bv1 64) strlen_117_64)))
 (let (($x3177 (not $x3176)))
 (let ((?x2852 ((_ extract 7 0) args_9_16)))
 (let (($x2583 (= (_ bv105 8) ?x2852)))
 (let (($x4007 (or $x2583 $x3177)))
 (let (($x4008 (not $x4007)))
 (let ((?x2821 ((_ extract 15 8) args_9_16)))
 (let (($x2847 (= (_ bv45 8) ?x2821)))
 (let (($x4009 (not $x2847)))
 (let (($x3171 (bvule (_ bv2 64) strlen_117_64)))
 (let (($x3124 (= (_ bv2 64) strlen_117_64)))
 (let (($x4010 (or $x3124 $x3171)))
 (let (($x4011 (not $x4010)))
 (or $x4011 $x4009 $x4008)))))))))))))))
(assert
 (let (($x16822 (bvule (_ bv6 64) strlen_432_64)))
 (let (($x885 (= (_ bv6 64) strlen_432_64)))
 (let (($x17960 (or $x885 $x16822)))
 (let (($x19254 (not $x17960)))
 (let ((?x2821 ((_ extract 15 8) args_9_16)))
 (let (($x2847 (= (_ bv45 8) ?x2821)))
 (let (($x4009 (not $x2847)))
 (let (($x10103 (bvule (_ bv1 64) strlen_432_64)))
 (let (($x10441 (not $x10103)))
 (let ((?x2852 ((_ extract 7 0) args_9_16)))
 (let (($x11951 (= (_ bv110 8) ?x2852)))
 (let (($x16720 (or $x11951 $x10441)))
 (let (($x2979 (not $x16720)))
 (or $x2979 $x4009 $x19254)))))))))))))))
(assert
 (= (_ bv1 32) strncmp_ret_118_32))
(assert
 (= (_ bv2 64) strlen_123_64))
(assert
 (let ((?x3366 ((_ extract 15 8) args_10_32)))
 (= (_ bv0 8) ?x3366)))
(assert
 (let ((?x3316 ((_ extract 31 24) args_10_32)))
 (= (_ bv45 8) ?x3316)))
(assert
 (let ((?x3358 ((_ extract 23 16) args_10_32)))
 (= (_ bv105 8) ?x3358)))
(assert
 (= (_ bv0 32) strncmp_ret_124_32))
(assert
 (let ((?x4462 ((_ extract 23 22) args_11_32)))
 (let (($x4437 (= (_ bv0 2) ?x4462)))
 (let (($x15220 (not $x4437)))
 (let ((?x3930 ((_ extract 23 16) args_11_32)))
 (let (($x4267 (bvule (_ bv48 8) ?x3930)))
 (let (($x4422 (not $x4267)))
 (let ((?x4268 ((_ extract 21 16) args_11_32)))
 (let (($x4296 (bvule ?x4268 (_ bv57 6))))
 (let (($x3758 (not $x4296)))
 (let (($x20641 (or $x3758 $x4422 $x15220)))
 (let (($x3836 (= (_ bv1 64) num_bytes_126_64)))
 (let (($x21520 (not $x3836)))
 (let ((?x4370 ((_ extract 15 14) args_11_32)))
 (let (($x2815 (= (_ bv0 2) ?x4370)))
 (let (($x20951 (not $x2815)))
 (let ((?x4320 ((_ extract 15 8) args_11_32)))
 (let (($x4338 (bvule (_ bv48 8) ?x4320)))
 (let (($x3767 (not $x4338)))
 (let ((?x4214 ((_ extract 13 8) args_11_32)))
 (let (($x3796 (bvule ?x4214 (_ bv57 6))))
 (let (($x3769 (not $x3796)))
 (let (($x17760 (or $x3769 $x3767 $x20951)))
 (let (($x22973 (not $x17760)))
 (let (($x20934 (or $x22973 $x21520 $x20641)))
 (let (($x8570 (not $x20934)))
 (let (($x11352 (not $x20641)))
 (let (($x4254 (= (_ bv0 64) num_bytes_126_64)))
 (let (($x4106 (not $x4254)))
 (let (($x20389 (or $x4106 $x11352)))
 (let (($x256 (not $x20389)))
 (let (($x10925 (or $x20641 $x17760)))
 (let (($x3837 (= (_ bv2 64) num_bytes_126_64)))
 (let (($x398 (not $x3837)))
 (let ((?x4354 ((_ extract 7 6) args_11_32)))
 (let (($x13712 (= (_ bv0 2) ?x4354)))
 (let (($x12813 (not $x13712)))
 (let ((?x4132 ((_ extract 7 0) args_11_32)))
 (let (($x4140 (bvule (_ bv48 8) ?x4132)))
 (let (($x3775 (not $x4140)))
 (let ((?x4145 ((_ extract 5 0) args_11_32)))
 (let (($x4372 (bvule ?x4145 (_ bv57 6))))
 (let (($x3777 (not $x4372)))
 (let (($x22873 (or $x3777 $x3775 $x12813)))
 (let (($x13765 (not $x22873)))
 (let (($x8293 (or $x13765 $x398 $x10925)))
 (let (($x18431 (not $x8293)))
 (let (($x20847 (or $x22873 $x10925)))
 (let (($x4330 (= (_ bv3 64) num_bytes_126_64)))
 (let (($x13702 (not $x4330)))
 (let (($x21709 (or $x13702 $x20847)))
 (let (($x13144 (not $x21709)))
 (or $x13144 $x18431 $x256 $x8570)))))))))))))))))))))))))))))))))))))))))))))))))))))
(assert
 (let ((?x4462 ((_ extract 23 22) args_11_32)))
 (let (($x4437 (= (_ bv0 2) ?x4462)))
 (let (($x15220 (not $x4437)))
 (let ((?x3930 ((_ extract 23 16) args_11_32)))
 (let (($x4267 (bvule (_ bv48 8) ?x3930)))
 (let (($x4422 (not $x4267)))
 (let ((?x4268 ((_ extract 21 16) args_11_32)))
 (let (($x4296 (bvule ?x4268 (_ bv57 6))))
 (let (($x3758 (not $x4296)))
 (let (($x20641 (or $x3758 $x4422 $x15220)))
 (let (($x4103 (= (_ bv1 64) num_bytes_125_64)))
 (let (($x4283 (not $x4103)))
 (let ((?x4370 ((_ extract 15 14) args_11_32)))
 (let (($x2815 (= (_ bv0 2) ?x4370)))
 (let (($x20951 (not $x2815)))
 (let ((?x4320 ((_ extract 15 8) args_11_32)))
 (let (($x4338 (bvule (_ bv48 8) ?x4320)))
 (let (($x3767 (not $x4338)))
 (let ((?x4214 ((_ extract 13 8) args_11_32)))
 (let (($x3796 (bvule ?x4214 (_ bv57 6))))
 (let (($x3769 (not $x3796)))
 (let (($x17760 (or $x3769 $x3767 $x20951)))
 (let (($x22973 (not $x17760)))
 (let (($x18673 (or $x22973 $x4283 $x20641)))
 (let (($x8575 (not $x18673)))
 (let (($x11352 (not $x20641)))
 (let (($x3849 (= (_ bv0 64) num_bytes_125_64)))
 (let (($x22087 (not $x3849)))
 (let (($x18873 (or $x22087 $x11352)))
 (let (($x15919 (not $x18873)))
 (let (($x10925 (or $x20641 $x17760)))
 (let (($x4261 (= (_ bv2 64) num_bytes_125_64)))
 (let (($x22913 (not $x4261)))
 (let ((?x4354 ((_ extract 7 6) args_11_32)))
 (let (($x13712 (= (_ bv0 2) ?x4354)))
 (let (($x12813 (not $x13712)))
 (let ((?x4132 ((_ extract 7 0) args_11_32)))
 (let (($x4140 (bvule (_ bv48 8) ?x4132)))
 (let (($x3775 (not $x4140)))
 (let ((?x4145 ((_ extract 5 0) args_11_32)))
 (let (($x4372 (bvule ?x4145 (_ bv57 6))))
 (let (($x3777 (not $x4372)))
 (let (($x22873 (or $x3777 $x3775 $x12813)))
 (let (($x13765 (not $x22873)))
 (let (($x22821 (or $x13765 $x22913 $x10925)))
 (let (($x7399 (not $x22821)))
 (let (($x20847 (or $x22873 $x10925)))
 (let (($x3737 (= (_ bv3 64) num_bytes_125_64)))
 (let (($x21948 (not $x3737)))
 (let (($x21827 (or $x21948 $x20847)))
 (let (($x10455 (not $x21827)))
 (or $x10455 $x7399 $x15919 $x8575)))))))))))))))))))))))))))))))))))))))))))))))))))))
(assert
 (let ((?x4044 ((_ extract 31 30) args_11_32)))
 (let (($x10817 (= (_ bv0 2) ?x4044)))
 (let (($x15204 (not $x10817)))
 (let ((?x3738 ((_ extract 31 24) args_11_32)))
 (let (($x4387 (bvule (_ bv48 8) ?x3738)))
 (let (($x3692 (not $x4387)))
 (let ((?x4312 ((_ extract 29 24) args_11_32)))
 (let (($x4242 (bvule ?x4312 (_ bv57 6))))
 (let (($x3705 (not $x4242)))
 (let (($x21369 (or $x3705 $x3692 $x15204)))
 (let (($x4218 (= (_ bv1 64) num_bytes_127_64)))
 (let (($x14383 (not $x4218)))
 (let ((?x4462 ((_ extract 23 22) args_11_32)))
 (let (($x4437 (= (_ bv0 2) ?x4462)))
 (let (($x15220 (not $x4437)))
 (let ((?x3930 ((_ extract 23 16) args_11_32)))
 (let (($x4267 (bvule (_ bv48 8) ?x3930)))
 (let (($x4422 (not $x4267)))
 (let ((?x4268 ((_ extract 21 16) args_11_32)))
 (let (($x4296 (bvule ?x4268 (_ bv57 6))))
 (let (($x3758 (not $x4296)))
 (let (($x20641 (or $x3758 $x4422 $x15220)))
 (let (($x11352 (not $x20641)))
 (let (($x21319 (or $x11352 $x14383 $x21369)))
 (let (($x17267 (not $x21319)))
 (let (($x21644 (not $x21369)))
 (let (($x4224 (= (_ bv0 64) num_bytes_127_64)))
 (let (($x11525 (not $x4224)))
 (let (($x10974 (or $x11525 $x21644)))
 (let (($x22129 (not $x10974)))
 (let (($x3821 (= (_ bv2 64) num_bytes_127_64)))
 (let (($x8181 (not $x3821)))
 (let ((?x4370 ((_ extract 15 14) args_11_32)))
 (let (($x2815 (= (_ bv0 2) ?x4370)))
 (let (($x20951 (not $x2815)))
 (let ((?x4320 ((_ extract 15 8) args_11_32)))
 (let (($x4338 (bvule (_ bv48 8) ?x4320)))
 (let (($x3767 (not $x4338)))
 (let ((?x4214 ((_ extract 13 8) args_11_32)))
 (let (($x3796 (bvule ?x4214 (_ bv57 6))))
 (let (($x3769 (not $x3796)))
 (let (($x17760 (or $x3769 $x3767 $x20951)))
 (let (($x22973 (not $x17760)))
 (let (($x21794 (or $x22973 $x8181 $x3705 $x15204 $x3692 $x20641)))
 (let (($x22961 (not $x21794)))
 (let (($x10925 (or $x20641 $x17760)))
 (let (($x3871 (= (_ bv3 64) num_bytes_127_64)))
 (let (($x8723 (not $x3871)))
 (let ((?x4354 ((_ extract 7 6) args_11_32)))
 (let (($x13712 (= (_ bv0 2) ?x4354)))
 (let (($x12813 (not $x13712)))
 (let ((?x4132 ((_ extract 7 0) args_11_32)))
 (let (($x4140 (bvule (_ bv48 8) ?x4132)))
 (let (($x3775 (not $x4140)))
 (let ((?x4145 ((_ extract 5 0) args_11_32)))
 (let (($x4372 (bvule ?x4145 (_ bv57 6))))
 (let (($x3777 (not $x4372)))
 (let (($x22873 (or $x3777 $x3775 $x12813)))
 (let (($x13765 (not $x22873)))
 (let (($x11186 (or $x13765 $x8723 $x21369 $x10925)))
 (let (($x14847 (not $x11186)))
 (let (($x20847 (or $x22873 $x10925)))
 (let (($x3807 (= (_ bv4 64) num_bytes_127_64)))
 (let (($x2478 (not $x3807)))
 (let (($x13280 (or $x2478 $x21369 $x20847)))
 (let (($x22107 (not $x13280)))
 (or $x22107 $x14847 $x22961 $x22129 $x17267))))))))))))))))))))))))))))))))))))))))))))))))))))))))))))))))))))
(assert
 (= (_ bv1 32) strncmp_ret_187_32))
(assert
 (= (_ bv1 32) strncmp_ret_207_32))
(assert
 (= (_ bv1 32) strncmp_ret_231_32))
(assert
 (= (_ bv1 32) strncmp_ret_255_32))
(assert
 (= (_ bv1 32) strncmp_ret_283_32))
(assert
 (= (_ bv1 32) strncmp_ret_313_32))
(assert
 (= (_ bv1 32) strncmp_ret_343_32))
(assert
 (= (_ bv1 32) strncmp_ret_373_32))
(assert
 (= (_ bv1 32) strncmp_ret_403_32))
(assert
 (= (_ bv1 32) strncmp_ret_433_32))
(assert
 (let ((?x18428 (bvadd (_ bv576460752303357859 64) strlen_462_64)))
 (let ((?x4643 ((_ extract 7 0) args_12_32)))
 (let (($x4664 (= (_ bv0 8) ?x4643)))
 (let ((?x4502 (ite $x4664 (_ bv576460752303357862 64) (_ bv576460752303357863 64))))
 (let ((?x4615 ((_ extract 15 8) args_12_32)))
 (let (($x5052 (= (_ bv0 8) ?x4615)))
 (let ((?x5315 (ite $x5052 (_ bv576460752303357861 64) ?x4502)))
 (let ((?x4639 ((_ extract 23 16) args_12_32)))
 (let (($x5295 (= (_ bv0 8) ?x4639)))
 (let ((?x5054 (ite $x5295 (_ bv576460752303357860 64) ?x5315)))
 (let ((?x4500 ((_ extract 31 24) args_12_32)))
 (let (($x4659 (= (_ bv0 8) ?x4500)))
 (let ((?x5316 (ite $x4659 (_ bv576460752303357859 64) ?x5054)))
 (= ?x5316 ?x18428)))))))))))))))
(assert
 (let (($x6733 (bvule (_ bv6 64) strlen_462_64)))
 (let (($x14398 (= (_ bv6 64) strlen_462_64)))
 (let (($x8405 (or $x14398 $x6733)))
 (let (($x16885 (not $x8405)))
 (let ((?x4500 ((_ extract 31 24) args_12_32)))
 (let (($x4877 (= (_ bv45 8) ?x4500)))
 (let (($x5808 (not $x4877)))
 (let (($x11558 (bvule (_ bv1 64) strlen_462_64)))
 (let (($x9527 (not $x11558)))
 (let ((?x4639 ((_ extract 23 16) args_12_32)))
 (let (($x8200 (= (_ bv110 8) ?x4639)))
 (let (($x17009 (or $x8200 $x9527)))
 (let (($x17168 (not $x17009)))
 (let (($x8100 (bvule (_ bv2 64) strlen_462_64)))
 (let (($x19701 (not $x8100)))
 (let ((?x4615 ((_ extract 15 8) args_12_32)))
 (let (($x9540 (= (_ bv111 8) ?x4615)))
 (let (($x19729 (or $x9540 $x19701)))
 (let (($x11865 (not $x19729)))
 (let ((?x4643 ((_ extract 7 0) args_12_32)))
 (let (($x7486 (= (_ bv103 8) ?x4643)))
 (let (($x6080 (bvule (_ bv3 64) strlen_462_64)))
 (let (($x8650 (not $x6080)))
 (let (($x14477 (or $x8650 $x7486)))
 (let (($x17852 (not $x14477)))
 (or $x17852 $x11865 $x17168 $x5808 $x16885)))))))))))))))))))))))))))
(assert
 (= (_ bv1 32) strncmp_ret_463_32))
(assert
 (let ((?x4613 (bvadd (_ bv576460752303357864 64) strlen_492_64)))
 (let ((?x5193 ((_ extract 7 0) args_13_32)))
 (let (($x5810 (= (_ bv0 8) ?x5193)))
 (let ((?x5941 (ite $x5810 (_ bv576460752303357867 64) (_ bv576460752303357868 64))))
 (let ((?x5752 ((_ extract 15 8) args_13_32)))
 (let (($x5809 (= (_ bv0 8) ?x5752)))
 (let ((?x5940 (ite $x5809 (_ bv576460752303357866 64) ?x5941)))
 (let ((?x5879 ((_ extract 23 16) args_13_32)))
 (let (($x5976 (= (_ bv0 8) ?x5879)))
 (let ((?x5939 (ite $x5976 (_ bv576460752303357865 64) ?x5940)))
 (let ((?x5380 ((_ extract 31 24) args_13_32)))
 (let (($x5374 (= (_ bv0 8) ?x5380)))
 (let ((?x5938 (ite $x5374 (_ bv576460752303357864 64) ?x5939)))
 (= ?x5938 ?x4613)))))))))))))))
(assert
 (let (($x18176 (bvule (_ bv6 64) strlen_492_64)))
 (let (($x20009 (= (_ bv6 64) strlen_492_64)))
 (let (($x15909 (or $x20009 $x18176)))
 (let (($x12800 (not $x15909)))
 (let ((?x5380 ((_ extract 31 24) args_13_32)))
 (let (($x5591 (= (_ bv45 8) ?x5380)))
 (let (($x6417 (not $x5591)))
 (let ((?x5879 ((_ extract 23 16) args_13_32)))
 (let (($x18746 (= (_ bv110 8) ?x5879)))
 (let (($x4929 (bvule (_ bv1 64) strlen_492_64)))
 (let (($x9841 (not $x4929)))
 (let (($x8521 (or $x9841 $x18746)))
 (let (($x15900 (not $x8521)))
 (let (($x16425 (bvule (_ bv2 64) strlen_492_64)))
 (let (($x17290 (not $x16425)))
 (let ((?x5752 ((_ extract 15 8) args_13_32)))
 (let (($x18515 (= (_ bv111 8) ?x5752)))
 (let (($x10456 (or $x18515 $x17290)))
 (let (($x15860 (not $x10456)))
 (let (($x13600 (bvule (_ bv3 64) strlen_492_64)))
 (let (($x17064 (not $x13600)))
 (let ((?x5193 ((_ extract 7 0) args_13_32)))
 (let (($x15745 (= (_ bv103 8) ?x5193)))
 (let (($x22217 (or $x15745 $x17064)))
 (let (($x14934 (not $x22217)))
 (or $x14934 $x15860 $x15900 $x6417 $x12800)))))))))))))))))))))))))))
(assert
 (= (_ bv1 32) strncmp_ret_493_32))
(assert
 (let ((?x16738 (bvadd (_ bv576460752303357869 64) strlen_522_64)))
 (let ((?x6356 ((_ extract 7 0) args_14_32)))
 (let (($x6416 (= (_ bv0 8) ?x6356)))
 (let ((?x6969 (ite $x6416 (_ bv576460752303357872 64) (_ bv576460752303357873 64))))
 (let ((?x6433 ((_ extract 15 8) args_14_32)))
 (let (($x6523 (= (_ bv0 8) ?x6433)))
 (let ((?x6966 (ite $x6523 (_ bv576460752303357871 64) ?x6969)))
 (let ((?x5337 ((_ extract 23 16) args_14_32)))
 (let (($x6994 (= (_ bv0 8) ?x5337)))
 (let ((?x6965 (ite $x6994 (_ bv576460752303357870 64) ?x6966)))
 (let ((?x6270 ((_ extract 31 24) args_14_32)))
 (let (($x5985 (= (_ bv0 8) ?x6270)))
 (let ((?x6964 (ite $x5985 (_ bv576460752303357869 64) ?x6965)))
 (= ?x6964 ?x16738)))))))))))))))
(assert
 (let (($x1008 (bvule (_ bv6 64) strlen_522_64)))
 (let (($x15630 (= (_ bv6 64) strlen_522_64)))
 (let (($x23820 (or $x15630 $x1008)))
 (let (($x23816 (not $x23820)))
 (let ((?x6270 ((_ extract 31 24) args_14_32)))
 (let (($x5368 (= (_ bv45 8) ?x6270)))
 (let (($x8173 (not $x5368)))
 (let (($x8106 (bvule (_ bv1 64) strlen_522_64)))
 (let (($x10458 (not $x8106)))
 (let ((?x5337 ((_ extract 23 16) args_14_32)))
 (let (($x18031 (= (_ bv110 8) ?x5337)))
 (let (($x23825 (or $x18031 $x10458)))
 (let (($x23826 (not $x23825)))
 (let ((?x6433 ((_ extract 15 8) args_14_32)))
 (let (($x12019 (= (_ bv111 8) ?x6433)))
 (let (($x17139 (bvule (_ bv2 64) strlen_522_64)))
 (let (($x18291 (not $x17139)))
 (let (($x24315 (or $x18291 $x12019)))
 (let (($x23829 (not $x24315)))
 (let ((?x6356 ((_ extract 7 0) args_14_32)))
 (let (($x18906 (= (_ bv103 8) ?x6356)))
 (let (($x2891 (bvule (_ bv3 64) strlen_522_64)))
 (let (($x11499 (not $x2891)))
 (let (($x24326 (or $x11499 $x18906)))
 (let (($x24308 (not $x24326)))
 (or $x24308 $x23829 $x23826 $x8173 $x23816)))))))))))))))))))))))))))
(assert
 (= (_ bv1 32) strncmp_ret_523_32))
(assert
 (= (_ bv1 32) strncmp_ret_553_32))
(assert
 (let ((?x23553 (bvadd (_ bv576460752303357874 64) strlen_552_64)))
 (let ((?x7178 ((_ extract 7 0) args_15_64)))
 (let (($x922 (= (_ bv0 8) ?x7178)))
 (let ((?x1100 (ite $x922 (_ bv576460752303357881 64) (_ bv576460752303357882 64))))
 (let ((?x7587 ((_ extract 15 8) args_15_64)))
 (let (($x8179 (= (_ bv0 8) ?x7587)))
 (let ((?x931 (ite $x8179 (_ bv576460752303357880 64) ?x1100)))
 (let ((?x6954 ((_ extract 23 16) args_15_64)))
 (let (($x8128 (= (_ bv0 8) ?x6954)))
 (let ((?x1267 (ite $x8128 (_ bv576460752303357879 64) ?x931)))
 (let ((?x7233 ((_ extract 31 24) args_15_64)))
 (let (($x8118 (= (_ bv0 8) ?x7233)))
 (let ((?x1716 (ite $x8118 (_ bv576460752303357878 64) ?x1267)))
 (let ((?x7510 ((_ extract 39 32) args_15_64)))
 (let (($x8099 (= (_ bv0 8) ?x7510)))
 (let ((?x1719 (ite $x8099 (_ bv576460752303357877 64) ?x1716)))
 (let ((?x6919 ((_ extract 47 40) args_15_64)))
 (let (($x8150 (= (_ bv0 8) ?x6919)))
 (let ((?x1712 (ite $x8150 (_ bv576460752303357876 64) ?x1719)))
 (let ((?x7152 ((_ extract 55 48) args_15_64)))
 (let (($x8149 (= (_ bv0 8) ?x7152)))
 (let ((?x1124 (ite $x8149 (_ bv576460752303357875 64) ?x1712)))
 (let ((?x7096 ((_ extract 63 56) args_15_64)))
 (let (($x7284 (= (_ bv0 8) ?x7096)))
 (let ((?x1107 (ite $x7284 (_ bv576460752303357874 64) ?x1124)))
 (= ?x1107 ?x23553)))))))))))))))))))))))))))
(assert
 (let ((?x7096 ((_ extract 63 56) args_15_64)))
 (let (($x7318 (= (_ bv45 8) ?x7096)))
 (let (($x2531 (not $x7318)))
 (let (($x23515 (= (_ bv6 64) strlen_552_64)))
 (let (($x21836 (not $x23515)))
 (let (($x23559 (bvule (_ bv1 64) strlen_552_64)))
 (let (($x23564 (not $x23559)))
 (let ((?x7152 ((_ extract 55 48) args_15_64)))
 (let (($x13051 (= (_ bv110 8) ?x7152)))
 (let (($x22086 (or $x13051 $x23564)))
 (let (($x19947 (not $x22086)))
 (let (($x23566 (bvule (_ bv2 64) strlen_552_64)))
 (let (($x23570 (not $x23566)))
 (let ((?x6919 ((_ extract 47 40) args_15_64)))
 (let (($x8117 (= (_ bv111 8) ?x6919)))
 (let (($x22070 (or $x8117 $x23570)))
 (let (($x21637 (not $x22070)))
 (let (($x23572 (bvule (_ bv3 64) strlen_552_64)))
 (let (($x23578 (not $x23572)))
 (let ((?x7510 ((_ extract 39 32) args_15_64)))
 (let (($x18743 (= (_ bv103 8) ?x7510)))
 (let (($x27376 (or $x18743 $x23578)))
 (let (($x27375 (not $x27376)))
 (let (($x23577 (bvule (_ bv4 64) strlen_552_64)))
 (let (($x23582 (not $x23577)))
 (let ((?x7233 ((_ extract 31 24) args_15_64)))
 (let (($x16517 (= (_ bv112 8) ?x7233)))
 (let (($x27378 (or $x16517 $x23582)))
 (let (($x27377 (not $x27378)))
 (let (($x23584 (bvule (_ bv5 64) strlen_552_64)))
 (let (($x23586 (not $x23584)))
 (let ((?x6954 ((_ extract 23 16) args_15_64)))
 (let (($x11460 (= (_ bv117 8) ?x6954)))
 (let (($x27379 (or $x11460 $x23586)))
 (let (($x27363 (not $x27379)))
 (or $x27363 $x27377 $x27375 $x21637 $x19947 $x21836 $x2531)))))))))))))))))))))))))))))))))))))
(assert
 (let ((?x1645 ((_ extract 7 0) args_16_64)))
 (let (($x2455 (= (_ bv0 8) ?x1645)))
 (let ((?x2164 (ite $x2455 (_ bv576460752303357890 64) (_ bv576460752303357891 64))))
 (let ((?x1452 ((_ extract 15 8) args_16_64)))
 (let (($x2232 (= (_ bv0 8) ?x1452)))
 (let ((?x9376 (ite $x2232 (_ bv576460752303357889 64) ?x2164)))
 (let ((?x2105 ((_ extract 23 16) args_16_64)))
 (let (($x3050 (= (_ bv0 8) ?x2105)))
 (let ((?x2885 (ite $x3050 (_ bv576460752303357888 64) ?x9376)))
 (let ((?x2015 ((_ extract 31 24) args_16_64)))
 (let (($x2681 (= (_ bv0 8) ?x2015)))
 (let ((?x9358 (ite $x2681 (_ bv576460752303357887 64) ?x2885)))
 (let ((?x2102 ((_ extract 39 32) args_16_64)))
 (let (($x9908 (= (_ bv0 8) ?x2102)))
 (let ((?x9624 (ite $x9908 (_ bv576460752303357886 64) ?x9358)))
 (let ((?x2108 ((_ extract 47 40) args_16_64)))
 (let (($x2947 (= (_ bv0 8) ?x2108)))
 (let ((?x2824 (ite $x2947 (_ bv576460752303357885 64) ?x9624)))
 (let ((?x2170 ((_ extract 55 48) args_16_64)))
 (let (($x9858 (= (_ bv0 8) ?x2170)))
 (let ((?x9549 (ite $x9858 (_ bv576460752303357884 64) ?x2824)))
 (let ((?x9051 ((_ extract 63 56) args_16_64)))
 (let (($x1168 (= (_ bv0 8) ?x9051)))
 (let ((?x2682 (ite $x1168 (_ bv576460752303357883 64) ?x9549)))
 (let ((?x9829 (bvsub ?x2682 (_ bv576460752303357883 64))))
 (= ?x9829 strlen_590_64)))))))))))))))))))))))))))
(assert
 (let (($x18323 (= (_ bv1 32) strncmp_ret_591_32)))
 (let (($x20923 (bvult strlen_590_64 (_ bv5 64))))
 (let ((?x2105 ((_ extract 23 16) args_16_64)))
 (let (($x15512 (= (_ bv117 8) ?x2105)))
 (let (($x20957 (or $x15512 $x20923)))
 (let (($x20082 (bvult strlen_590_64 (_ bv4 64))))
 (let ((?x2015 ((_ extract 31 24) args_16_64)))
 (let (($x20164 (= (_ bv112 8) ?x2015)))
 (let (($x108 (or $x20164 $x20082)))
 (let (($x22169 (bvult strlen_590_64 (_ bv3 64))))
 (let ((?x2102 ((_ extract 39 32) args_16_64)))
 (let (($x19677 (= (_ bv103 8) ?x2102)))
 (let (($x21902 (or $x19677 $x22169)))
 (let (($x6666 (bvult strlen_590_64 (_ bv2 64))))
 (let ((?x2108 ((_ extract 47 40) args_16_64)))
 (let (($x17934 (= (_ bv111 8) ?x2108)))
 (let (($x21583 (or $x17934 $x6666)))
 (let (($x22178 (bvult strlen_590_64 (_ bv1 64))))
 (let ((?x2170 ((_ extract 55 48) args_16_64)))
 (let (($x14686 (= (_ bv110 8) ?x2170)))
 (let (($x6665 (or $x14686 $x22178)))
 (let (($x16488 (bvult strlen_590_64 (_ bv0 64))))
 (let ((?x9051 ((_ extract 63 56) args_16_64)))
 (let (($x8549 (= (_ bv45 8) ?x9051)))
 (let (($x19501 (or $x8549 $x16488)))
 (let (($x21973 (= (_ bv6 64) strlen_590_64)))
 (let (($x21048 (and $x21973 $x19501 $x6665 $x21583 $x21902 $x108 $x20957)))
 (let (($x17135 (not $x21048)))
 (let (($x22078 (and $x17135 $x18323)))
 (let (($x22109 (= (_ bv0 32) strncmp_ret_591_32)))
 (let (($x17277 (and $x21973 $x19501 $x6665 $x21583 $x21902 $x108 $x20957 $x22109)))
 (or $x17277 $x22078)))))))))))))))))))))))))))))))))
(assert
 (and (distinct (_ bv0 32) strncmp_ret_591_32) true))
(minimize strlen_93_64)
(maximize args_13_32)
(maximize strlen_282_64)
(minimize strlen_372_64)
(maximize args_2_8)
(maximize strlen_123_64)
(maximize strlen_87_64)
(minimize strncmp_ret_343_32)
(maximize strlen_206_64)
(maximize strlen_492_64)
(minimize strncmp_ret_112_32)
(minimize strlen_432_64)
(minimize strncmp_ret_79_32)
(maximize strlen_81_64)
(maximize strlen_552_64)
(minimize strncmp_ret_523_32)
(maximize strlen_312_64)
(minimize args_13_32)
(maximize args_4_8)
(minimize strlen_78_64)
(minimize strlen_312_64)
(minimize args_16_64)
(minimize strlen_99_64)
(maximize strlen_105_64)
(maximize strncmp_ret_94_32)
(maximize strlen_111_64)
(maximize args_10_32)
(minimize strlen_552_64)
(minimize strlen_111_64)
(minimize args_0_8)
(maximize args_6_16)
(minimize strncmp_ret_493_32)
(minimize strncmp_ret_591_32)
(maximize args_12_32)
(minimize strlen_186_64)
(minimize strncmp_ret_106_32)
(minimize args_6_16)
(minimize strncmp_ret_118_32)
(minimize strncmp_ret_553_32)
(maximize strlen_342_64)
(minimize strlen_230_64)
(minimize args_8_16)
(minimize strlen_462_64)
(maximize strlen_186_64)
(maximize strncmp_ret_463_32)
(minimize strncmp_ret_88_32)
(maximize strncmp_ret_91_32)
(maximize strncmp_ret_433_32)
(maximize strlen_590_64)
(minimize args_10_32)
(maximize strncmp_ret_231_32)
(maximize args_0_8)
(minimize strlen_87_64)
(minimize strlen_81_64)
(maximize args_9_16)
(minimize strncmp_ret_207_32)
(minimize args_3_8)
(maximize strncmp_ret_118_32)
(maximize args_16_64)
(maximize args_15_64)
(maximize strlen_117_64)
(minimize strncmp_ret_313_32)
(maximize args_11_32)
(maximize strlen_84_64)
(minimize strncmp_ret_283_32)
(maximize strlen_99_64)
(maximize strlen_78_64)
(minimize args_1_8)
(minimize strlen_492_64)
(maximize args_14_32)
(minimize args_15_64)
(maximize strncmp_ret_100_32)
(minimize strncmp_ret_433_32)
(maximize strncmp_ret_283_32)
(minimize strlen_117_64)
(minimize strlen_522_64)
(maximize args_1_8)
(minimize args_9_16)
(maximize strlen_402_64)
(minimize args_11_32)
(maximize strncmp_ret_207_32)
(maximize strncmp_ret_343_32)
(minimize args_14_32)
(minimize strncmp_ret_85_32)
(minimize strlen_84_64)
(minimize args_7_16)
(maximize strncmp_ret_403_32)
(maximize args_7_16)
(maximize strncmp_ret_88_32)
(maximize strlen_90_64)
(maximize strncmp_ret_255_32)
(minimize args_5_16)
(minimize strlen_590_64)
(check-sat)
(get-objectives)
